c description: Random 5-CNF over 15 variables and 45 clauses
c generator: CNFgen (0.9.0)
c copyright: (C) 2012-2020 Massimo Lauria <massimo.lauria@uniroma1.it>
c url: https://massimolauria.net/cnfgen
c
p cnf 15 45
1 4 -6 -7 -12 0
-5 7 8 10 15 0
-8 9 -11 -12 -15 0
-2 3 5 6 -11 0
2 3 -5 -6 -8 0
-4 5 -6 7 10 0
3 -4 -7 9 15 0
4 7 -8 11 -15 0
3 8 10 13 -14 0
-1 3 7 11 -14 0
2 -7 -8 11 -13 0
1 -3 -5 6 -7 0
-3 -4 8 -9 11 0
-4 -9 -10 -12 -13 0
-1 6 -8 -9 11 0
-1 8 -10 12 -13 0
3 4 -5 9 14 0
6 7 -9 11 14 0
-2 -4 7 -11 -14 0
9 10 12 14 15 0
1 9 -10 -12 13 0
-3 -5 7 11 -12 0
-2 -9 10 -13 -15 0
-2 -7 8 9 -13 0
-1 -7 -9 -13 -14 0
-2 3 4 -6 -15 0
-4 5 8 -14 15 0
-5 7 -8 12 14 0
2 5 -8 -11 -14 0
-1 -2 -3 10 -15 0
1 -2 8 11 15 0
1 -4 -6 7 8 0
-4 -9 -10 12 -13 0
1 -3 7 11 12 0
2 3 5 11 -15 0
1 2 -8 -9 14 0
-1 11 -13 14 15 0
2 -4 5 -6 9 0
1 4 -6 -10 -15 0
-1 6 -7 11 -13 0
-3 7 12 13 14 0
-2 -3 5 8 -13 0
-1 -6 -13 14 -15 0
5 7 -10 -11 -13 0
2 -4 6 11 14 0